20	5
0	5	20	2	3	4	1
1	1	6
2	1	10
3	1	15
4	1	14
5	0
6	2	21	13
7	1	18
8	2	9	21
9	1	21
10	1	11
11	2	16	7
12	1	5
13	2	21	8
14	2	11	12
15	1	19
16	1	21
17	1	21
18	1	21
19	1	21
20	1	21
21	0
0	0	0	0	0	0	0
1	7	1	3	3	2	0
2	10	4	4	2	4	5
3	1	3	2	1	4	1
4	7	3	1	1	2	3
5	10	1	0	0	0	4
6	8	3	5	3	5	5
7	1	5	4	4	2	1
8	7	3	3	4	2	0
9	8	0	5	0	0	0
10	8	4	5	0	0	5
11	3	2	0	4	0	2
12	5	1	0	1	0	5
13	4	4	0	4	0	1
14	10	5	3	2	1	4
15	3	5	2	5	2	4
16	7	3	2	3	2	5
17	7	1	0	4	4	0
18	8	4	2	3	1	1
19	7	0	0	4	0	0
20	8	0	0	3	3	1
21	0	0	0	0	0	0
11	10	11	11	10
